p cnf 0 0
c help to minisat to remove posibilities
1 2 0
3 4 0
5 6 0
7 8 0
9 10 0
11 12 0
13 14 0
15 16 0
17 18 0
19 20 0
21 22 0
23 24 0
25 26 0
27 28 0
29 30 0
31 32 0
33 34 0
35 36 0
37 38 0
39 40 0
41 42 0
43 44 0
45 46 0
47 48 0
49 50 0
51 52 0
53 54 0
55 56 0
c proper colo
1 57 58 59 60 61 62 0
3 63 64 65 66 67 68 0
5 69 70 71 72 73 74 0
7 75 76 77 78 79 80 0
9 81 82 83 84 85 86 0
11 87 88 89 90 91 92 0
13 93 94 95 96 97 98 0
15 99 100 101 102 103 104 0
17 105 106 107 108 109 110 0
19 111 112 113 114 115 116 0
21 117 118 119 120 121 122 0
23 123 124 125 126 127 128 0
25 129 130 131 132 133 134 0
27 135 136 137 138 139 140 0
29 141 142 143 144 145 146 0
31 147 148 149 150 151 152 0
33 153 154 155 156 157 158 0
35 159 160 161 162 163 164 0
37 165 166 167 168 169 170 0
39 171 172 173 174 175 176 0
41 177 178 179 180 181 182 0
43 183 184 185 186 187 188 0
45 189 190 191 192 193 194 0
47 195 196 197 198 199 200 0
49 201 202 203 204 205 206 0
51 207 208 209 210 211 212 0
53 213 214 215 216 217 218 0
55 219 220 221 222 223 224 0
-57 3 0
-57 15 0
-57 4 16 0
-57 -4 -16 0
57 -3 -15 4 -16 0
57 -3 -15 -4 16 0
-58 5 0
-58 17 0
-58 6 18 0
-58 -6 -18 0
58 -5 -17 6 -18 0
58 -5 -17 -6 18 0
-59 7 0
-59 19 0
-59 8 20 0
-59 -8 -20 0
59 -7 -19 8 -20 0
59 -7 -19 -8 20 0
-60 9 0
-60 21 0
-60 10 22 0
-60 -10 -22 0
60 -9 -21 10 -22 0
60 -9 -21 -10 22 0
-61 11 0
-61 23 0
-61 12 24 0
-61 -12 -24 0
61 -11 -23 12 -24 0
61 -11 -23 -12 24 0
-62 13 0
-62 25 0
-62 14 26 0
-62 -14 -26 0
62 -13 -25 14 -26 0
62 -13 -25 -14 26 0
-63 1 0
-63 15 0
-63 2 16 0
-63 -2 -16 0
63 -1 -15 2 -16 0
63 -1 -15 -2 16 0
-64 5 0
-64 27 0
-64 6 28 0
-64 -6 -28 0
64 -5 -27 6 -28 0
64 -5 -27 -6 28 0
-65 7 0
-65 29 0
-65 8 30 0
-65 -8 -30 0
65 -7 -29 8 -30 0
65 -7 -29 -8 30 0
-66 9 0
-66 31 0
-66 10 32 0
-66 -10 -32 0
66 -9 -31 10 -32 0
66 -9 -31 -10 32 0
-67 11 0
-67 33 0
-67 12 34 0
-67 -12 -34 0
67 -11 -33 12 -34 0
67 -11 -33 -12 34 0
-68 13 0
-68 35 0
-68 14 36 0
-68 -14 -36 0
68 -13 -35 14 -36 0
68 -13 -35 -14 36 0
-69 1 0
-69 17 0
-69 2 18 0
-69 -2 -18 0
69 -1 -17 2 -18 0
69 -1 -17 -2 18 0
-70 3 0
-70 27 0
-70 4 28 0
-70 -4 -28 0
70 -3 -27 4 -28 0
70 -3 -27 -4 28 0
-71 7 0
-71 37 0
-71 8 38 0
-71 -8 -38 0
71 -7 -37 8 -38 0
71 -7 -37 -8 38 0
-72 9 0
-72 39 0
-72 10 40 0
-72 -10 -40 0
72 -9 -39 10 -40 0
72 -9 -39 -10 40 0
-73 11 0
-73 41 0
-73 12 42 0
-73 -12 -42 0
73 -11 -41 12 -42 0
73 -11 -41 -12 42 0
-74 13 0
-74 43 0
-74 14 44 0
-74 -14 -44 0
74 -13 -43 14 -44 0
74 -13 -43 -14 44 0
-75 1 0
-75 19 0
-75 2 20 0
-75 -2 -20 0
75 -1 -19 2 -20 0
75 -1 -19 -2 20 0
-76 3 0
-76 29 0
-76 4 30 0
-76 -4 -30 0
76 -3 -29 4 -30 0
76 -3 -29 -4 30 0
-77 5 0
-77 37 0
-77 6 38 0
-77 -6 -38 0
77 -5 -37 6 -38 0
77 -5 -37 -6 38 0
-78 9 0
-78 45 0
-78 10 46 0
-78 -10 -46 0
78 -9 -45 10 -46 0
78 -9 -45 -10 46 0
-79 11 0
-79 47 0
-79 12 48 0
-79 -12 -48 0
79 -11 -47 12 -48 0
79 -11 -47 -12 48 0
-80 13 0
-80 49 0
-80 14 50 0
-80 -14 -50 0
80 -13 -49 14 -50 0
80 -13 -49 -14 50 0
-81 1 0
-81 21 0
-81 2 22 0
-81 -2 -22 0
81 -1 -21 2 -22 0
81 -1 -21 -2 22 0
-82 3 0
-82 31 0
-82 4 32 0
-82 -4 -32 0
82 -3 -31 4 -32 0
82 -3 -31 -4 32 0
-83 5 0
-83 39 0
-83 6 40 0
-83 -6 -40 0
83 -5 -39 6 -40 0
83 -5 -39 -6 40 0
-84 7 0
-84 45 0
-84 8 46 0
-84 -8 -46 0
84 -7 -45 8 -46 0
84 -7 -45 -8 46 0
-85 11 0
-85 51 0
-85 12 52 0
-85 -12 -52 0
85 -11 -51 12 -52 0
85 -11 -51 -12 52 0
-86 13 0
-86 53 0
-86 14 54 0
-86 -14 -54 0
86 -13 -53 14 -54 0
86 -13 -53 -14 54 0
-87 1 0
-87 23 0
-87 2 24 0
-87 -2 -24 0
87 -1 -23 2 -24 0
87 -1 -23 -2 24 0
-88 3 0
-88 33 0
-88 4 34 0
-88 -4 -34 0
88 -3 -33 4 -34 0
88 -3 -33 -4 34 0
-89 5 0
-89 41 0
-89 6 42 0
-89 -6 -42 0
89 -5 -41 6 -42 0
89 -5 -41 -6 42 0
-90 7 0
-90 47 0
-90 8 48 0
-90 -8 -48 0
90 -7 -47 8 -48 0
90 -7 -47 -8 48 0
-91 9 0
-91 51 0
-91 10 52 0
-91 -10 -52 0
91 -9 -51 10 -52 0
91 -9 -51 -10 52 0
-92 13 0
-92 55 0
-92 14 56 0
-92 -14 -56 0
92 -13 -55 14 -56 0
92 -13 -55 -14 56 0
-93 1 0
-93 25 0
-93 2 26 0
-93 -2 -26 0
93 -1 -25 2 -26 0
93 -1 -25 -2 26 0
-94 3 0
-94 35 0
-94 4 36 0
-94 -4 -36 0
94 -3 -35 4 -36 0
94 -3 -35 -4 36 0
-95 5 0
-95 43 0
-95 6 44 0
-95 -6 -44 0
95 -5 -43 6 -44 0
95 -5 -43 -6 44 0
-96 7 0
-96 49 0
-96 8 50 0
-96 -8 -50 0
96 -7 -49 8 -50 0
96 -7 -49 -8 50 0
-97 9 0
-97 53 0
-97 10 54 0
-97 -10 -54 0
97 -9 -53 10 -54 0
97 -9 -53 -10 54 0
-98 11 0
-98 55 0
-98 12 56 0
-98 -12 -56 0
98 -11 -55 12 -56 0
98 -11 -55 -12 56 0
-99 1 0
-99 3 0
-99 2 4 0
-99 -2 -4 0
99 -1 -3 2 -4 0
99 -1 -3 -2 4 0
-100 17 0
-100 27 0
-100 18 28 0
-100 -18 -28 0
100 -17 -27 18 -28 0
100 -17 -27 -18 28 0
-101 19 0
-101 29 0
-101 20 30 0
-101 -20 -30 0
101 -19 -29 20 -30 0
101 -19 -29 -20 30 0
-102 21 0
-102 31 0
-102 22 32 0
-102 -22 -32 0
102 -21 -31 22 -32 0
102 -21 -31 -22 32 0
-103 23 0
-103 33 0
-103 24 34 0
-103 -24 -34 0
103 -23 -33 24 -34 0
103 -23 -33 -24 34 0
-104 25 0
-104 35 0
-104 26 36 0
-104 -26 -36 0
104 -25 -35 26 -36 0
104 -25 -35 -26 36 0
-105 1 0
-105 5 0
-105 2 6 0
-105 -2 -6 0
105 -1 -5 2 -6 0
105 -1 -5 -2 6 0
-106 15 0
-106 27 0
-106 16 28 0
-106 -16 -28 0
106 -15 -27 16 -28 0
106 -15 -27 -16 28 0
-107 19 0
-107 37 0
-107 20 38 0
-107 -20 -38 0
107 -19 -37 20 -38 0
107 -19 -37 -20 38 0
-108 21 0
-108 39 0
-108 22 40 0
-108 -22 -40 0
108 -21 -39 22 -40 0
108 -21 -39 -22 40 0
-109 23 0
-109 41 0
-109 24 42 0
-109 -24 -42 0
109 -23 -41 24 -42 0
109 -23 -41 -24 42 0
-110 25 0
-110 43 0
-110 26 44 0
-110 -26 -44 0
110 -25 -43 26 -44 0
110 -25 -43 -26 44 0
-111 1 0
-111 7 0
-111 2 8 0
-111 -2 -8 0
111 -1 -7 2 -8 0
111 -1 -7 -2 8 0
-112 15 0
-112 29 0
-112 16 30 0
-112 -16 -30 0
112 -15 -29 16 -30 0
112 -15 -29 -16 30 0
-113 17 0
-113 37 0
-113 18 38 0
-113 -18 -38 0
113 -17 -37 18 -38 0
113 -17 -37 -18 38 0
-114 21 0
-114 45 0
-114 22 46 0
-114 -22 -46 0
114 -21 -45 22 -46 0
114 -21 -45 -22 46 0
-115 23 0
-115 47 0
-115 24 48 0
-115 -24 -48 0
115 -23 -47 24 -48 0
115 -23 -47 -24 48 0
-116 25 0
-116 49 0
-116 26 50 0
-116 -26 -50 0
116 -25 -49 26 -50 0
116 -25 -49 -26 50 0
-117 1 0
-117 9 0
-117 2 10 0
-117 -2 -10 0
117 -1 -9 2 -10 0
117 -1 -9 -2 10 0
-118 15 0
-118 31 0
-118 16 32 0
-118 -16 -32 0
118 -15 -31 16 -32 0
118 -15 -31 -16 32 0
-119 17 0
-119 39 0
-119 18 40 0
-119 -18 -40 0
119 -17 -39 18 -40 0
119 -17 -39 -18 40 0
-120 19 0
-120 45 0
-120 20 46 0
-120 -20 -46 0
120 -19 -45 20 -46 0
120 -19 -45 -20 46 0
-121 23 0
-121 51 0
-121 24 52 0
-121 -24 -52 0
121 -23 -51 24 -52 0
121 -23 -51 -24 52 0
-122 25 0
-122 53 0
-122 26 54 0
-122 -26 -54 0
122 -25 -53 26 -54 0
122 -25 -53 -26 54 0
-123 1 0
-123 11 0
-123 2 12 0
-123 -2 -12 0
123 -1 -11 2 -12 0
123 -1 -11 -2 12 0
-124 15 0
-124 33 0
-124 16 34 0
-124 -16 -34 0
124 -15 -33 16 -34 0
124 -15 -33 -16 34 0
-125 17 0
-125 41 0
-125 18 42 0
-125 -18 -42 0
125 -17 -41 18 -42 0
125 -17 -41 -18 42 0
-126 19 0
-126 47 0
-126 20 48 0
-126 -20 -48 0
126 -19 -47 20 -48 0
126 -19 -47 -20 48 0
-127 21 0
-127 51 0
-127 22 52 0
-127 -22 -52 0
127 -21 -51 22 -52 0
127 -21 -51 -22 52 0
-128 25 0
-128 55 0
-128 26 56 0
-128 -26 -56 0
128 -25 -55 26 -56 0
128 -25 -55 -26 56 0
-129 1 0
-129 13 0
-129 2 14 0
-129 -2 -14 0
129 -1 -13 2 -14 0
129 -1 -13 -2 14 0
-130 15 0
-130 35 0
-130 16 36 0
-130 -16 -36 0
130 -15 -35 16 -36 0
130 -15 -35 -16 36 0
-131 17 0
-131 43 0
-131 18 44 0
-131 -18 -44 0
131 -17 -43 18 -44 0
131 -17 -43 -18 44 0
-132 19 0
-132 49 0
-132 20 50 0
-132 -20 -50 0
132 -19 -49 20 -50 0
132 -19 -49 -20 50 0
-133 21 0
-133 53 0
-133 22 54 0
-133 -22 -54 0
133 -21 -53 22 -54 0
133 -21 -53 -22 54 0
-134 23 0
-134 55 0
-134 24 56 0
-134 -24 -56 0
134 -23 -55 24 -56 0
134 -23 -55 -24 56 0
-135 3 0
-135 5 0
-135 4 6 0
-135 -4 -6 0
135 -3 -5 4 -6 0
135 -3 -5 -4 6 0
-136 15 0
-136 17 0
-136 16 18 0
-136 -16 -18 0
136 -15 -17 16 -18 0
136 -15 -17 -16 18 0
-137 29 0
-137 37 0
-137 30 38 0
-137 -30 -38 0
137 -29 -37 30 -38 0
137 -29 -37 -30 38 0
-138 31 0
-138 39 0
-138 32 40 0
-138 -32 -40 0
138 -31 -39 32 -40 0
138 -31 -39 -32 40 0
-139 33 0
-139 41 0
-139 34 42 0
-139 -34 -42 0
139 -33 -41 34 -42 0
139 -33 -41 -34 42 0
-140 35 0
-140 43 0
-140 36 44 0
-140 -36 -44 0
140 -35 -43 36 -44 0
140 -35 -43 -36 44 0
-141 3 0
-141 7 0
-141 4 8 0
-141 -4 -8 0
141 -3 -7 4 -8 0
141 -3 -7 -4 8 0
-142 15 0
-142 19 0
-142 16 20 0
-142 -16 -20 0
142 -15 -19 16 -20 0
142 -15 -19 -16 20 0
-143 27 0
-143 37 0
-143 28 38 0
-143 -28 -38 0
143 -27 -37 28 -38 0
143 -27 -37 -28 38 0
-144 31 0
-144 45 0
-144 32 46 0
-144 -32 -46 0
144 -31 -45 32 -46 0
144 -31 -45 -32 46 0
-145 33 0
-145 47 0
-145 34 48 0
-145 -34 -48 0
145 -33 -47 34 -48 0
145 -33 -47 -34 48 0
-146 35 0
-146 49 0
-146 36 50 0
-146 -36 -50 0
146 -35 -49 36 -50 0
146 -35 -49 -36 50 0
-147 3 0
-147 9 0
-147 4 10 0
-147 -4 -10 0
147 -3 -9 4 -10 0
147 -3 -9 -4 10 0
-148 15 0
-148 21 0
-148 16 22 0
-148 -16 -22 0
148 -15 -21 16 -22 0
148 -15 -21 -16 22 0
-149 27 0
-149 39 0
-149 28 40 0
-149 -28 -40 0
149 -27 -39 28 -40 0
149 -27 -39 -28 40 0
-150 29 0
-150 45 0
-150 30 46 0
-150 -30 -46 0
150 -29 -45 30 -46 0
150 -29 -45 -30 46 0
-151 33 0
-151 51 0
-151 34 52 0
-151 -34 -52 0
151 -33 -51 34 -52 0
151 -33 -51 -34 52 0
-152 35 0
-152 53 0
-152 36 54 0
-152 -36 -54 0
152 -35 -53 36 -54 0
152 -35 -53 -36 54 0
-153 3 0
-153 11 0
-153 4 12 0
-153 -4 -12 0
153 -3 -11 4 -12 0
153 -3 -11 -4 12 0
-154 15 0
-154 23 0
-154 16 24 0
-154 -16 -24 0
154 -15 -23 16 -24 0
154 -15 -23 -16 24 0
-155 27 0
-155 41 0
-155 28 42 0
-155 -28 -42 0
155 -27 -41 28 -42 0
155 -27 -41 -28 42 0
-156 29 0
-156 47 0
-156 30 48 0
-156 -30 -48 0
156 -29 -47 30 -48 0
156 -29 -47 -30 48 0
-157 31 0
-157 51 0
-157 32 52 0
-157 -32 -52 0
157 -31 -51 32 -52 0
157 -31 -51 -32 52 0
-158 35 0
-158 55 0
-158 36 56 0
-158 -36 -56 0
158 -35 -55 36 -56 0
158 -35 -55 -36 56 0
-159 3 0
-159 13 0
-159 4 14 0
-159 -4 -14 0
159 -3 -13 4 -14 0
159 -3 -13 -4 14 0
-160 15 0
-160 25 0
-160 16 26 0
-160 -16 -26 0
160 -15 -25 16 -26 0
160 -15 -25 -16 26 0
-161 27 0
-161 43 0
-161 28 44 0
-161 -28 -44 0
161 -27 -43 28 -44 0
161 -27 -43 -28 44 0
-162 29 0
-162 49 0
-162 30 50 0
-162 -30 -50 0
162 -29 -49 30 -50 0
162 -29 -49 -30 50 0
-163 31 0
-163 53 0
-163 32 54 0
-163 -32 -54 0
163 -31 -53 32 -54 0
163 -31 -53 -32 54 0
-164 33 0
-164 55 0
-164 34 56 0
-164 -34 -56 0
164 -33 -55 34 -56 0
164 -33 -55 -34 56 0
-165 5 0
-165 7 0
-165 6 8 0
-165 -6 -8 0
165 -5 -7 6 -8 0
165 -5 -7 -6 8 0
-166 17 0
-166 19 0
-166 18 20 0
-166 -18 -20 0
166 -17 -19 18 -20 0
166 -17 -19 -18 20 0
-167 27 0
-167 29 0
-167 28 30 0
-167 -28 -30 0
167 -27 -29 28 -30 0
167 -27 -29 -28 30 0
-168 39 0
-168 45 0
-168 40 46 0
-168 -40 -46 0
168 -39 -45 40 -46 0
168 -39 -45 -40 46 0
-169 41 0
-169 47 0
-169 42 48 0
-169 -42 -48 0
169 -41 -47 42 -48 0
169 -41 -47 -42 48 0
-170 43 0
-170 49 0
-170 44 50 0
-170 -44 -50 0
170 -43 -49 44 -50 0
170 -43 -49 -44 50 0
-171 5 0
-171 9 0
-171 6 10 0
-171 -6 -10 0
171 -5 -9 6 -10 0
171 -5 -9 -6 10 0
-172 17 0
-172 21 0
-172 18 22 0
-172 -18 -22 0
172 -17 -21 18 -22 0
172 -17 -21 -18 22 0
-173 27 0
-173 31 0
-173 28 32 0
-173 -28 -32 0
173 -27 -31 28 -32 0
173 -27 -31 -28 32 0
-174 37 0
-174 45 0
-174 38 46 0
-174 -38 -46 0
174 -37 -45 38 -46 0
174 -37 -45 -38 46 0
-175 41 0
-175 51 0
-175 42 52 0
-175 -42 -52 0
175 -41 -51 42 -52 0
175 -41 -51 -42 52 0
-176 43 0
-176 53 0
-176 44 54 0
-176 -44 -54 0
176 -43 -53 44 -54 0
176 -43 -53 -44 54 0
-177 5 0
-177 11 0
-177 6 12 0
-177 -6 -12 0
177 -5 -11 6 -12 0
177 -5 -11 -6 12 0
-178 17 0
-178 23 0
-178 18 24 0
-178 -18 -24 0
178 -17 -23 18 -24 0
178 -17 -23 -18 24 0
-179 27 0
-179 33 0
-179 28 34 0
-179 -28 -34 0
179 -27 -33 28 -34 0
179 -27 -33 -28 34 0
-180 37 0
-180 47 0
-180 38 48 0
-180 -38 -48 0
180 -37 -47 38 -48 0
180 -37 -47 -38 48 0
-181 39 0
-181 51 0
-181 40 52 0
-181 -40 -52 0
181 -39 -51 40 -52 0
181 -39 -51 -40 52 0
-182 43 0
-182 55 0
-182 44 56 0
-182 -44 -56 0
182 -43 -55 44 -56 0
182 -43 -55 -44 56 0
-183 5 0
-183 13 0
-183 6 14 0
-183 -6 -14 0
183 -5 -13 6 -14 0
183 -5 -13 -6 14 0
-184 17 0
-184 25 0
-184 18 26 0
-184 -18 -26 0
184 -17 -25 18 -26 0
184 -17 -25 -18 26 0
-185 27 0
-185 35 0
-185 28 36 0
-185 -28 -36 0
185 -27 -35 28 -36 0
185 -27 -35 -28 36 0
-186 37 0
-186 49 0
-186 38 50 0
-186 -38 -50 0
186 -37 -49 38 -50 0
186 -37 -49 -38 50 0
-187 39 0
-187 53 0
-187 40 54 0
-187 -40 -54 0
187 -39 -53 40 -54 0
187 -39 -53 -40 54 0
-188 41 0
-188 55 0
-188 42 56 0
-188 -42 -56 0
188 -41 -55 42 -56 0
188 -41 -55 -42 56 0
-189 7 0
-189 9 0
-189 8 10 0
-189 -8 -10 0
189 -7 -9 8 -10 0
189 -7 -9 -8 10 0
-190 19 0
-190 21 0
-190 20 22 0
-190 -20 -22 0
190 -19 -21 20 -22 0
190 -19 -21 -20 22 0
-191 29 0
-191 31 0
-191 30 32 0
-191 -30 -32 0
191 -29 -31 30 -32 0
191 -29 -31 -30 32 0
-192 37 0
-192 39 0
-192 38 40 0
-192 -38 -40 0
192 -37 -39 38 -40 0
192 -37 -39 -38 40 0
-193 47 0
-193 51 0
-193 48 52 0
-193 -48 -52 0
193 -47 -51 48 -52 0
193 -47 -51 -48 52 0
-194 49 0
-194 53 0
-194 50 54 0
-194 -50 -54 0
194 -49 -53 50 -54 0
194 -49 -53 -50 54 0
-195 7 0
-195 11 0
-195 8 12 0
-195 -8 -12 0
195 -7 -11 8 -12 0
195 -7 -11 -8 12 0
-196 19 0
-196 23 0
-196 20 24 0
-196 -20 -24 0
196 -19 -23 20 -24 0
196 -19 -23 -20 24 0
-197 29 0
-197 33 0
-197 30 34 0
-197 -30 -34 0
197 -29 -33 30 -34 0
197 -29 -33 -30 34 0
-198 37 0
-198 41 0
-198 38 42 0
-198 -38 -42 0
198 -37 -41 38 -42 0
198 -37 -41 -38 42 0
-199 45 0
-199 51 0
-199 46 52 0
-199 -46 -52 0
199 -45 -51 46 -52 0
199 -45 -51 -46 52 0
-200 49 0
-200 55 0
-200 50 56 0
-200 -50 -56 0
200 -49 -55 50 -56 0
200 -49 -55 -50 56 0
-201 7 0
-201 13 0
-201 8 14 0
-201 -8 -14 0
201 -7 -13 8 -14 0
201 -7 -13 -8 14 0
-202 19 0
-202 25 0
-202 20 26 0
-202 -20 -26 0
202 -19 -25 20 -26 0
202 -19 -25 -20 26 0
-203 29 0
-203 35 0
-203 30 36 0
-203 -30 -36 0
203 -29 -35 30 -36 0
203 -29 -35 -30 36 0
-204 37 0
-204 43 0
-204 38 44 0
-204 -38 -44 0
204 -37 -43 38 -44 0
204 -37 -43 -38 44 0
-205 45 0
-205 53 0
-205 46 54 0
-205 -46 -54 0
205 -45 -53 46 -54 0
205 -45 -53 -46 54 0
-206 47 0
-206 55 0
-206 48 56 0
-206 -48 -56 0
206 -47 -55 48 -56 0
206 -47 -55 -48 56 0
-207 9 0
-207 11 0
-207 10 12 0
-207 -10 -12 0
207 -9 -11 10 -12 0
207 -9 -11 -10 12 0
-208 21 0
-208 23 0
-208 22 24 0
-208 -22 -24 0
208 -21 -23 22 -24 0
208 -21 -23 -22 24 0
-209 31 0
-209 33 0
-209 32 34 0
-209 -32 -34 0
209 -31 -33 32 -34 0
209 -31 -33 -32 34 0
-210 39 0
-210 41 0
-210 40 42 0
-210 -40 -42 0
210 -39 -41 40 -42 0
210 -39 -41 -40 42 0
-211 45 0
-211 47 0
-211 46 48 0
-211 -46 -48 0
211 -45 -47 46 -48 0
211 -45 -47 -46 48 0
-212 53 0
-212 55 0
-212 54 56 0
-212 -54 -56 0
212 -53 -55 54 -56 0
212 -53 -55 -54 56 0
-213 9 0
-213 13 0
-213 10 14 0
-213 -10 -14 0
213 -9 -13 10 -14 0
213 -9 -13 -10 14 0
-214 21 0
-214 25 0
-214 22 26 0
-214 -22 -26 0
214 -21 -25 22 -26 0
214 -21 -25 -22 26 0
-215 31 0
-215 35 0
-215 32 36 0
-215 -32 -36 0
215 -31 -35 32 -36 0
215 -31 -35 -32 36 0
-216 39 0
-216 43 0
-216 40 44 0
-216 -40 -44 0
216 -39 -43 40 -44 0
216 -39 -43 -40 44 0
-217 45 0
-217 49 0
-217 46 50 0
-217 -46 -50 0
217 -45 -49 46 -50 0
217 -45 -49 -46 50 0
-218 51 0
-218 55 0
-218 52 56 0
-218 -52 -56 0
218 -51 -55 52 -56 0
218 -51 -55 -52 56 0
-219 11 0
-219 13 0
-219 12 14 0
-219 -12 -14 0
219 -11 -13 12 -14 0
219 -11 -13 -12 14 0
-220 23 0
-220 25 0
-220 24 26 0
-220 -24 -26 0
220 -23 -25 24 -26 0
220 -23 -25 -24 26 0
-221 33 0
-221 35 0
-221 34 36 0
-221 -34 -36 0
221 -33 -35 34 -36 0
221 -33 -35 -34 36 0
-222 41 0
-222 43 0
-222 42 44 0
-222 -42 -44 0
222 -41 -43 42 -44 0
222 -41 -43 -42 44 0
-223 47 0
-223 49 0
-223 48 50 0
-223 -48 -50 0
223 -47 -49 48 -50 0
223 -47 -49 -48 50 0
-224 51 0
-224 53 0
-224 52 54 0
-224 -52 -54 0
224 -51 -53 52 -54 0
224 -51 -53 -52 54 0
c Graph as few edges
-225 239 0
-239 225 3 0
-226 240 0
-240 226 3 0
-225 -3 240 0
-240 226 225 0
-227 241 0
-241 227 3 0
-226 -3 241 0
-241 227 226 0
-228 242 0
-242 228 3 0
-227 -3 242 0
-242 228 227 0
-229 243 0
-243 229 3 0
-228 -3 243 0
-243 229 228 0
-230 244 0
-244 230 3 0
-229 -3 244 0
-244 230 229 0
-231 245 0
-245 231 3 0
-230 -3 245 0
-245 231 230 0
-232 246 0
-246 232 3 0
-231 -3 246 0
-246 232 231 0
-233 247 0
-247 233 3 0
-232 -3 247 0
-247 233 232 0
-234 248 0
-248 234 3 0
-233 -3 248 0
-248 234 233 0
-235 249 0
-249 235 3 0
-234 -3 249 0
-249 235 234 0
-236 250 0
-250 236 3 0
-235 -3 250 0
-250 236 235 0
-237 251 0
-251 237 3 0
-236 -3 251 0
-251 237 236 0
-238 252 0
-252 238 3 0
-237 -3 252 0
-252 238 237 0
-239 253 0
-253 239 5 0
-240 254 0
-254 240 5 0
-239 -5 254 0
-254 240 239 0
-241 255 0
-255 241 5 0
-240 -5 255 0
-255 241 240 0
-242 256 0
-256 242 5 0
-241 -5 256 0
-256 242 241 0
-243 257 0
-257 243 5 0
-242 -5 257 0
-257 243 242 0
-244 258 0
-258 244 5 0
-243 -5 258 0
-258 244 243 0
-245 259 0
-259 245 5 0
-244 -5 259 0
-259 245 244 0
-246 260 0
-260 246 5 0
-245 -5 260 0
-260 246 245 0
-247 261 0
-261 247 5 0
-246 -5 261 0
-261 247 246 0
-248 262 0
-262 248 5 0
-247 -5 262 0
-262 248 247 0
-249 263 0
-263 249 5 0
-248 -5 263 0
-263 249 248 0
-250 264 0
-264 250 5 0
-249 -5 264 0
-264 250 249 0
-251 265 0
-265 251 5 0
-250 -5 265 0
-265 251 250 0
-252 266 0
-266 252 5 0
-251 -5 266 0
-266 252 251 0
-253 267 0
-267 253 7 0
-254 268 0
-268 254 7 0
-253 -7 268 0
-268 254 253 0
-255 269 0
-269 255 7 0
-254 -7 269 0
-269 255 254 0
-256 270 0
-270 256 7 0
-255 -7 270 0
-270 256 255 0
-257 271 0
-271 257 7 0
-256 -7 271 0
-271 257 256 0
-258 272 0
-272 258 7 0
-257 -7 272 0
-272 258 257 0
-259 273 0
-273 259 7 0
-258 -7 273 0
-273 259 258 0
-260 274 0
-274 260 7 0
-259 -7 274 0
-274 260 259 0
-261 275 0
-275 261 7 0
-260 -7 275 0
-275 261 260 0
-262 276 0
-276 262 7 0
-261 -7 276 0
-276 262 261 0
-263 277 0
-277 263 7 0
-262 -7 277 0
-277 263 262 0
-264 278 0
-278 264 7 0
-263 -7 278 0
-278 264 263 0
-265 279 0
-279 265 7 0
-264 -7 279 0
-279 265 264 0
-266 280 0
-280 266 7 0
-265 -7 280 0
-280 266 265 0
-267 281 0
-281 267 9 0
-268 282 0
-282 268 9 0
-267 -9 282 0
-282 268 267 0
-269 283 0
-283 269 9 0
-268 -9 283 0
-283 269 268 0
-270 284 0
-284 270 9 0
-269 -9 284 0
-284 270 269 0
-271 285 0
-285 271 9 0
-270 -9 285 0
-285 271 270 0
-272 286 0
-286 272 9 0
-271 -9 286 0
-286 272 271 0
-273 287 0
-287 273 9 0
-272 -9 287 0
-287 273 272 0
-274 288 0
-288 274 9 0
-273 -9 288 0
-288 274 273 0
-275 289 0
-289 275 9 0
-274 -9 289 0
-289 275 274 0
-276 290 0
-290 276 9 0
-275 -9 290 0
-290 276 275 0
-277 291 0
-291 277 9 0
-276 -9 291 0
-291 277 276 0
-278 292 0
-292 278 9 0
-277 -9 292 0
-292 278 277 0
-279 293 0
-293 279 9 0
-278 -9 293 0
-293 279 278 0
-280 294 0
-294 280 9 0
-279 -9 294 0
-294 280 279 0
-281 295 0
-295 281 11 0
-282 296 0
-296 282 11 0
-281 -11 296 0
-296 282 281 0
-283 297 0
-297 283 11 0
-282 -11 297 0
-297 283 282 0
-284 298 0
-298 284 11 0
-283 -11 298 0
-298 284 283 0
-285 299 0
-299 285 11 0
-284 -11 299 0
-299 285 284 0
-286 300 0
-300 286 11 0
-285 -11 300 0
-300 286 285 0
-287 301 0
-301 287 11 0
-286 -11 301 0
-301 287 286 0
-288 302 0
-302 288 11 0
-287 -11 302 0
-302 288 287 0
-289 303 0
-303 289 11 0
-288 -11 303 0
-303 289 288 0
-290 304 0
-304 290 11 0
-289 -11 304 0
-304 290 289 0
-291 305 0
-305 291 11 0
-290 -11 305 0
-305 291 290 0
-292 306 0
-306 292 11 0
-291 -11 306 0
-306 292 291 0
-293 307 0
-307 293 11 0
-292 -11 307 0
-307 293 292 0
-294 308 0
-308 294 11 0
-293 -11 308 0
-308 294 293 0
-295 309 0
-309 295 13 0
-296 310 0
-310 296 13 0
-295 -13 310 0
-310 296 295 0
-297 311 0
-311 297 13 0
-296 -13 311 0
-311 297 296 0
-298 312 0
-312 298 13 0
-297 -13 312 0
-312 298 297 0
-299 313 0
-313 299 13 0
-298 -13 313 0
-313 299 298 0
-300 314 0
-314 300 13 0
-299 -13 314 0
-314 300 299 0
-301 315 0
-315 301 13 0
-300 -13 315 0
-315 301 300 0
-302 316 0
-316 302 13 0
-301 -13 316 0
-316 302 301 0
-303 317 0
-317 303 13 0
-302 -13 317 0
-317 303 302 0
-304 318 0
-318 304 13 0
-303 -13 318 0
-318 304 303 0
-305 319 0
-319 305 13 0
-304 -13 319 0
-319 305 304 0
-306 320 0
-320 306 13 0
-305 -13 320 0
-320 306 305 0
-307 321 0
-321 307 13 0
-306 -13 321 0
-321 307 306 0
-308 322 0
-322 308 13 0
-307 -13 322 0
-322 308 307 0
-309 323 0
-323 309 15 0
-310 324 0
-324 310 15 0
-309 -15 324 0
-324 310 309 0
-311 325 0
-325 311 15 0
-310 -15 325 0
-325 311 310 0
-312 326 0
-326 312 15 0
-311 -15 326 0
-326 312 311 0
-313 327 0
-327 313 15 0
-312 -15 327 0
-327 313 312 0
-314 328 0
-328 314 15 0
-313 -15 328 0
-328 314 313 0
-315 329 0
-329 315 15 0
-314 -15 329 0
-329 315 314 0
-316 330 0
-330 316 15 0
-315 -15 330 0
-330 316 315 0
-317 331 0
-331 317 15 0
-316 -15 331 0
-331 317 316 0
-318 332 0
-332 318 15 0
-317 -15 332 0
-332 318 317 0
-319 333 0
-333 319 15 0
-318 -15 333 0
-333 319 318 0
-320 334 0
-334 320 15 0
-319 -15 334 0
-334 320 319 0
-321 335 0
-335 321 15 0
-320 -15 335 0
-335 321 320 0
-322 336 0
-336 322 15 0
-321 -15 336 0
-336 322 321 0
-323 337 0
-337 323 17 0
-324 338 0
-338 324 17 0
-323 -17 338 0
-338 324 323 0
-325 339 0
-339 325 17 0
-324 -17 339 0
-339 325 324 0
-326 340 0
-340 326 17 0
-325 -17 340 0
-340 326 325 0
-327 341 0
-341 327 17 0
-326 -17 341 0
-341 327 326 0
-328 342 0
-342 328 17 0
-327 -17 342 0
-342 328 327 0
-329 343 0
-343 329 17 0
-328 -17 343 0
-343 329 328 0
-330 344 0
-344 330 17 0
-329 -17 344 0
-344 330 329 0
-331 345 0
-345 331 17 0
-330 -17 345 0
-345 331 330 0
-332 346 0
-346 332 17 0
-331 -17 346 0
-346 332 331 0
-333 347 0
-347 333 17 0
-332 -17 347 0
-347 333 332 0
-334 348 0
-348 334 17 0
-333 -17 348 0
-348 334 333 0
-335 349 0
-349 335 17 0
-334 -17 349 0
-349 335 334 0
-336 350 0
-350 336 17 0
-335 -17 350 0
-350 336 335 0
-337 351 0
-351 337 19 0
-338 352 0
-352 338 19 0
-337 -19 352 0
-352 338 337 0
-339 353 0
-353 339 19 0
-338 -19 353 0
-353 339 338 0
-340 354 0
-354 340 19 0
-339 -19 354 0
-354 340 339 0
-341 355 0
-355 341 19 0
-340 -19 355 0
-355 341 340 0
-342 356 0
-356 342 19 0
-341 -19 356 0
-356 342 341 0
-343 357 0
-357 343 19 0
-342 -19 357 0
-357 343 342 0
-344 358 0
-358 344 19 0
-343 -19 358 0
-358 344 343 0
-345 359 0
-359 345 19 0
-344 -19 359 0
-359 345 344 0
-346 360 0
-360 346 19 0
-345 -19 360 0
-360 346 345 0
-347 361 0
-361 347 19 0
-346 -19 361 0
-361 347 346 0
-348 362 0
-362 348 19 0
-347 -19 362 0
-362 348 347 0
-349 363 0
-363 349 19 0
-348 -19 363 0
-363 349 348 0
-350 364 0
-364 350 19 0
-349 -19 364 0
-364 350 349 0
-351 365 0
-365 351 21 0
-352 366 0
-366 352 21 0
-351 -21 366 0
-366 352 351 0
-353 367 0
-367 353 21 0
-352 -21 367 0
-367 353 352 0
-354 368 0
-368 354 21 0
-353 -21 368 0
-368 354 353 0
-355 369 0
-369 355 21 0
-354 -21 369 0
-369 355 354 0
-356 370 0
-370 356 21 0
-355 -21 370 0
-370 356 355 0
-357 371 0
-371 357 21 0
-356 -21 371 0
-371 357 356 0
-358 372 0
-372 358 21 0
-357 -21 372 0
-372 358 357 0
-359 373 0
-373 359 21 0
-358 -21 373 0
-373 359 358 0
-360 374 0
-374 360 21 0
-359 -21 374 0
-374 360 359 0
-361 375 0
-375 361 21 0
-360 -21 375 0
-375 361 360 0
-362 376 0
-376 362 21 0
-361 -21 376 0
-376 362 361 0
-363 377 0
-377 363 21 0
-362 -21 377 0
-377 363 362 0
-364 378 0
-378 364 21 0
-363 -21 378 0
-378 364 363 0
-365 379 0
-379 365 23 0
-366 380 0
-380 366 23 0
-365 -23 380 0
-380 366 365 0
-367 381 0
-381 367 23 0
-366 -23 381 0
-381 367 366 0
-368 382 0
-382 368 23 0
-367 -23 382 0
-382 368 367 0
-369 383 0
-383 369 23 0
-368 -23 383 0
-383 369 368 0
-370 384 0
-384 370 23 0
-369 -23 384 0
-384 370 369 0
-371 385 0
-385 371 23 0
-370 -23 385 0
-385 371 370 0
-372 386 0
-386 372 23 0
-371 -23 386 0
-386 372 371 0
-373 387 0
-387 373 23 0
-372 -23 387 0
-387 373 372 0
-374 388 0
-388 374 23 0
-373 -23 388 0
-388 374 373 0
-375 389 0
-389 375 23 0
-374 -23 389 0
-389 375 374 0
-376 390 0
-390 376 23 0
-375 -23 390 0
-390 376 375 0
-377 391 0
-391 377 23 0
-376 -23 391 0
-391 377 376 0
-378 392 0
-392 378 23 0
-377 -23 392 0
-392 378 377 0
-379 393 0
-393 379 25 0
-380 394 0
-394 380 25 0
-379 -25 394 0
-394 380 379 0
-381 395 0
-395 381 25 0
-380 -25 395 0
-395 381 380 0
-382 396 0
-396 382 25 0
-381 -25 396 0
-396 382 381 0
-383 397 0
-397 383 25 0
-382 -25 397 0
-397 383 382 0
-384 398 0
-398 384 25 0
-383 -25 398 0
-398 384 383 0
-385 399 0
-399 385 25 0
-384 -25 399 0
-399 385 384 0
-386 400 0
-400 386 25 0
-385 -25 400 0
-400 386 385 0
-387 401 0
-401 387 25 0
-386 -25 401 0
-401 387 386 0
-388 402 0
-402 388 25 0
-387 -25 402 0
-402 388 387 0
-389 403 0
-403 389 25 0
-388 -25 403 0
-403 389 388 0
-390 404 0
-404 390 25 0
-389 -25 404 0
-404 390 389 0
-391 405 0
-405 391 25 0
-390 -25 405 0
-405 391 390 0
-392 406 0
-406 392 25 0
-391 -25 406 0
-406 392 391 0
-393 407 0
-407 393 27 0
-394 408 0
-408 394 27 0
-393 -27 408 0
-408 394 393 0
-395 409 0
-409 395 27 0
-394 -27 409 0
-409 395 394 0
-396 410 0
-410 396 27 0
-395 -27 410 0
-410 396 395 0
-397 411 0
-411 397 27 0
-396 -27 411 0
-411 397 396 0
-398 412 0
-412 398 27 0
-397 -27 412 0
-412 398 397 0
-399 413 0
-413 399 27 0
-398 -27 413 0
-413 399 398 0
-400 414 0
-414 400 27 0
-399 -27 414 0
-414 400 399 0
-401 415 0
-415 401 27 0
-400 -27 415 0
-415 401 400 0
-402 416 0
-416 402 27 0
-401 -27 416 0
-416 402 401 0
-403 417 0
-417 403 27 0
-402 -27 417 0
-417 403 402 0
-404 418 0
-418 404 27 0
-403 -27 418 0
-418 404 403 0
-405 419 0
-419 405 27 0
-404 -27 419 0
-419 405 404 0
-406 420 0
-420 406 27 0
-405 -27 420 0
-420 406 405 0
-407 421 0
-421 407 29 0
-408 422 0
-422 408 29 0
-407 -29 422 0
-422 408 407 0
-409 423 0
-423 409 29 0
-408 -29 423 0
-423 409 408 0
-410 424 0
-424 410 29 0
-409 -29 424 0
-424 410 409 0
-411 425 0
-425 411 29 0
-410 -29 425 0
-425 411 410 0
-412 426 0
-426 412 29 0
-411 -29 426 0
-426 412 411 0
-413 427 0
-427 413 29 0
-412 -29 427 0
-427 413 412 0
-414 428 0
-428 414 29 0
-413 -29 428 0
-428 414 413 0
-415 429 0
-429 415 29 0
-414 -29 429 0
-429 415 414 0
-416 430 0
-430 416 29 0
-415 -29 430 0
-430 416 415 0
-417 431 0
-431 417 29 0
-416 -29 431 0
-431 417 416 0
-418 432 0
-432 418 29 0
-417 -29 432 0
-432 418 417 0
-419 433 0
-433 419 29 0
-418 -29 433 0
-433 419 418 0
-420 434 0
-434 420 29 0
-419 -29 434 0
-434 420 419 0
-421 435 0
-435 421 31 0
-422 436 0
-436 422 31 0
-421 -31 436 0
-436 422 421 0
-423 437 0
-437 423 31 0
-422 -31 437 0
-437 423 422 0
-424 438 0
-438 424 31 0
-423 -31 438 0
-438 424 423 0
-425 439 0
-439 425 31 0
-424 -31 439 0
-439 425 424 0
-426 440 0
-440 426 31 0
-425 -31 440 0
-440 426 425 0
-427 441 0
-441 427 31 0
-426 -31 441 0
-441 427 426 0
-428 442 0
-442 428 31 0
-427 -31 442 0
-442 428 427 0
-429 443 0
-443 429 31 0
-428 -31 443 0
-443 429 428 0
-430 444 0
-444 430 31 0
-429 -31 444 0
-444 430 429 0
-431 445 0
-445 431 31 0
-430 -31 445 0
-445 431 430 0
-432 446 0
-446 432 31 0
-431 -31 446 0
-446 432 431 0
-433 447 0
-447 433 31 0
-432 -31 447 0
-447 433 432 0
-434 448 0
-448 434 31 0
-433 -31 448 0
-448 434 433 0
-435 449 0
-449 435 33 0
-436 450 0
-450 436 33 0
-435 -33 450 0
-450 436 435 0
-437 451 0
-451 437 33 0
-436 -33 451 0
-451 437 436 0
-438 452 0
-452 438 33 0
-437 -33 452 0
-452 438 437 0
-439 453 0
-453 439 33 0
-438 -33 453 0
-453 439 438 0
-440 454 0
-454 440 33 0
-439 -33 454 0
-454 440 439 0
-441 455 0
-455 441 33 0
-440 -33 455 0
-455 441 440 0
-442 456 0
-456 442 33 0
-441 -33 456 0
-456 442 441 0
-443 457 0
-457 443 33 0
-442 -33 457 0
-457 443 442 0
-444 458 0
-458 444 33 0
-443 -33 458 0
-458 444 443 0
-445 459 0
-459 445 33 0
-444 -33 459 0
-459 445 444 0
-446 460 0
-460 446 33 0
-445 -33 460 0
-460 446 445 0
-447 461 0
-461 447 33 0
-446 -33 461 0
-461 447 446 0
-448 462 0
-462 448 33 0
-447 -33 462 0
-462 448 447 0
-449 463 0
-463 449 35 0
-450 464 0
-464 450 35 0
-449 -35 464 0
-464 450 449 0
-451 465 0
-465 451 35 0
-450 -35 465 0
-465 451 450 0
-452 466 0
-466 452 35 0
-451 -35 466 0
-466 452 451 0
-453 467 0
-467 453 35 0
-452 -35 467 0
-467 453 452 0
-454 468 0
-468 454 35 0
-453 -35 468 0
-468 454 453 0
-455 469 0
-469 455 35 0
-454 -35 469 0
-469 455 454 0
-456 470 0
-470 456 35 0
-455 -35 470 0
-470 456 455 0
-457 471 0
-471 457 35 0
-456 -35 471 0
-471 457 456 0
-458 472 0
-472 458 35 0
-457 -35 472 0
-472 458 457 0
-459 473 0
-473 459 35 0
-458 -35 473 0
-473 459 458 0
-460 474 0
-474 460 35 0
-459 -35 474 0
-474 460 459 0
-461 475 0
-475 461 35 0
-460 -35 475 0
-475 461 460 0
-462 476 0
-476 462 35 0
-461 -35 476 0
-476 462 461 0
-463 477 0
-477 463 37 0
-464 478 0
-478 464 37 0
-463 -37 478 0
-478 464 463 0
-465 479 0
-479 465 37 0
-464 -37 479 0
-479 465 464 0
-466 480 0
-480 466 37 0
-465 -37 480 0
-480 466 465 0
-467 481 0
-481 467 37 0
-466 -37 481 0
-481 467 466 0
-468 482 0
-482 468 37 0
-467 -37 482 0
-482 468 467 0
-469 483 0
-483 469 37 0
-468 -37 483 0
-483 469 468 0
-470 484 0
-484 470 37 0
-469 -37 484 0
-484 470 469 0
-471 485 0
-485 471 37 0
-470 -37 485 0
-485 471 470 0
-472 486 0
-486 472 37 0
-471 -37 486 0
-486 472 471 0
-473 487 0
-487 473 37 0
-472 -37 487 0
-487 473 472 0
-474 488 0
-488 474 37 0
-473 -37 488 0
-488 474 473 0
-475 489 0
-489 475 37 0
-474 -37 489 0
-489 475 474 0
-476 490 0
-490 476 37 0
-475 -37 490 0
-490 476 475 0
-477 491 0
-491 477 39 0
-478 492 0
-492 478 39 0
-477 -39 492 0
-492 478 477 0
-479 493 0
-493 479 39 0
-478 -39 493 0
-493 479 478 0
-480 494 0
-494 480 39 0
-479 -39 494 0
-494 480 479 0
-481 495 0
-495 481 39 0
-480 -39 495 0
-495 481 480 0
-482 496 0
-496 482 39 0
-481 -39 496 0
-496 482 481 0
-483 497 0
-497 483 39 0
-482 -39 497 0
-497 483 482 0
-484 498 0
-498 484 39 0
-483 -39 498 0
-498 484 483 0
-485 499 0
-499 485 39 0
-484 -39 499 0
-499 485 484 0
-486 500 0
-500 486 39 0
-485 -39 500 0
-500 486 485 0
-487 501 0
-501 487 39 0
-486 -39 501 0
-501 487 486 0
-488 502 0
-502 488 39 0
-487 -39 502 0
-502 488 487 0
-489 503 0
-503 489 39 0
-488 -39 503 0
-503 489 488 0
-490 504 0
-504 490 39 0
-489 -39 504 0
-504 490 489 0
-491 505 0
-505 491 41 0
-492 506 0
-506 492 41 0
-491 -41 506 0
-506 492 491 0
-493 507 0
-507 493 41 0
-492 -41 507 0
-507 493 492 0
-494 508 0
-508 494 41 0
-493 -41 508 0
-508 494 493 0
-495 509 0
-509 495 41 0
-494 -41 509 0
-509 495 494 0
-496 510 0
-510 496 41 0
-495 -41 510 0
-510 496 495 0
-497 511 0
-511 497 41 0
-496 -41 511 0
-511 497 496 0
-498 512 0
-512 498 41 0
-497 -41 512 0
-512 498 497 0
-499 513 0
-513 499 41 0
-498 -41 513 0
-513 499 498 0
-500 514 0
-514 500 41 0
-499 -41 514 0
-514 500 499 0
-501 515 0
-515 501 41 0
-500 -41 515 0
-515 501 500 0
-502 516 0
-516 502 41 0
-501 -41 516 0
-516 502 501 0
-503 517 0
-517 503 41 0
-502 -41 517 0
-517 503 502 0
-504 518 0
-518 504 41 0
-503 -41 518 0
-518 504 503 0
-505 519 0
-519 505 43 0
-506 520 0
-520 506 43 0
-505 -43 520 0
-520 506 505 0
-507 521 0
-521 507 43 0
-506 -43 521 0
-521 507 506 0
-508 522 0
-522 508 43 0
-507 -43 522 0
-522 508 507 0
-509 523 0
-523 509 43 0
-508 -43 523 0
-523 509 508 0
-510 524 0
-524 510 43 0
-509 -43 524 0
-524 510 509 0
-511 525 0
-525 511 43 0
-510 -43 525 0
-525 511 510 0
-512 526 0
-526 512 43 0
-511 -43 526 0
-526 512 511 0
-513 527 0
-527 513 43 0
-512 -43 527 0
-527 513 512 0
-514 528 0
-528 514 43 0
-513 -43 528 0
-528 514 513 0
-515 529 0
-529 515 43 0
-514 -43 529 0
-529 515 514 0
-516 530 0
-530 516 43 0
-515 -43 530 0
-530 516 515 0
-517 531 0
-531 517 43 0
-516 -43 531 0
-531 517 516 0
-518 532 0
-532 518 43 0
-517 -43 532 0
-532 518 517 0
-519 533 0
-533 519 45 0
-520 534 0
-534 520 45 0
-519 -45 534 0
-534 520 519 0
-521 535 0
-535 521 45 0
-520 -45 535 0
-535 521 520 0
-522 536 0
-536 522 45 0
-521 -45 536 0
-536 522 521 0
-523 537 0
-537 523 45 0
-522 -45 537 0
-537 523 522 0
-524 538 0
-538 524 45 0
-523 -45 538 0
-538 524 523 0
-525 539 0
-539 525 45 0
-524 -45 539 0
-539 525 524 0
-526 540 0
-540 526 45 0
-525 -45 540 0
-540 526 525 0
-527 541 0
-541 527 45 0
-526 -45 541 0
-541 527 526 0
-528 542 0
-542 528 45 0
-527 -45 542 0
-542 528 527 0
-529 543 0
-543 529 45 0
-528 -45 543 0
-543 529 528 0
-530 544 0
-544 530 45 0
-529 -45 544 0
-544 530 529 0
-531 545 0
-545 531 45 0
-530 -45 545 0
-545 531 530 0
-532 546 0
-546 532 45 0
-531 -45 546 0
-546 532 531 0
-533 547 0
-547 533 47 0
-534 548 0
-548 534 47 0
-533 -47 548 0
-548 534 533 0
-535 549 0
-549 535 47 0
-534 -47 549 0
-549 535 534 0
-536 550 0
-550 536 47 0
-535 -47 550 0
-550 536 535 0
-537 551 0
-551 537 47 0
-536 -47 551 0
-551 537 536 0
-538 552 0
-552 538 47 0
-537 -47 552 0
-552 538 537 0
-539 553 0
-553 539 47 0
-538 -47 553 0
-553 539 538 0
-540 554 0
-554 540 47 0
-539 -47 554 0
-554 540 539 0
-541 555 0
-555 541 47 0
-540 -47 555 0
-555 541 540 0
-542 556 0
-556 542 47 0
-541 -47 556 0
-556 542 541 0
-543 557 0
-557 543 47 0
-542 -47 557 0
-557 543 542 0
-544 558 0
-558 544 47 0
-543 -47 558 0
-558 544 543 0
-545 559 0
-559 545 47 0
-544 -47 559 0
-559 545 544 0
-546 560 0
-560 546 47 0
-545 -47 560 0
-560 546 545 0
-547 561 0
-561 547 49 0
-548 562 0
-562 548 49 0
-547 -49 562 0
-562 548 547 0
-549 563 0
-563 549 49 0
-548 -49 563 0
-563 549 548 0
-550 564 0
-564 550 49 0
-549 -49 564 0
-564 550 549 0
-551 565 0
-565 551 49 0
-550 -49 565 0
-565 551 550 0
-552 566 0
-566 552 49 0
-551 -49 566 0
-566 552 551 0
-553 567 0
-567 553 49 0
-552 -49 567 0
-567 553 552 0
-554 568 0
-568 554 49 0
-553 -49 568 0
-568 554 553 0
-555 569 0
-569 555 49 0
-554 -49 569 0
-569 555 554 0
-556 570 0
-570 556 49 0
-555 -49 570 0
-570 556 555 0
-557 571 0
-571 557 49 0
-556 -49 571 0
-571 557 556 0
-558 572 0
-572 558 49 0
-557 -49 572 0
-572 558 557 0
-559 573 0
-573 559 49 0
-558 -49 573 0
-573 559 558 0
-560 574 0
-574 560 49 0
-559 -49 574 0
-574 560 559 0
-561 575 0
-575 561 51 0
-562 576 0
-576 562 51 0
-561 -51 576 0
-576 562 561 0
-563 577 0
-577 563 51 0
-562 -51 577 0
-577 563 562 0
-564 578 0
-578 564 51 0
-563 -51 578 0
-578 564 563 0
-565 579 0
-579 565 51 0
-564 -51 579 0
-579 565 564 0
-566 580 0
-580 566 51 0
-565 -51 580 0
-580 566 565 0
-567 581 0
-581 567 51 0
-566 -51 581 0
-581 567 566 0
-568 582 0
-582 568 51 0
-567 -51 582 0
-582 568 567 0
-569 583 0
-583 569 51 0
-568 -51 583 0
-583 569 568 0
-570 584 0
-584 570 51 0
-569 -51 584 0
-584 570 569 0
-571 585 0
-585 571 51 0
-570 -51 585 0
-585 571 570 0
-572 586 0
-586 572 51 0
-571 -51 586 0
-586 572 571 0
-573 587 0
-587 573 51 0
-572 -51 587 0
-587 573 572 0
-574 588 0
-588 574 51 0
-573 -51 588 0
-588 574 573 0
-575 589 0
-589 575 53 0
-576 590 0
-590 576 53 0
-575 -53 590 0
-590 576 575 0
-577 591 0
-591 577 53 0
-576 -53 591 0
-591 577 576 0
-578 592 0
-592 578 53 0
-577 -53 592 0
-592 578 577 0
-579 593 0
-593 579 53 0
-578 -53 593 0
-593 579 578 0
-580 594 0
-594 580 53 0
-579 -53 594 0
-594 580 579 0
-581 595 0
-595 581 53 0
-580 -53 595 0
-595 581 580 0
-582 596 0
-596 582 53 0
-581 -53 596 0
-596 582 581 0
-583 597 0
-597 583 53 0
-582 -53 597 0
-597 583 582 0
-584 598 0
-598 584 53 0
-583 -53 598 0
-598 584 583 0
-585 599 0
-599 585 53 0
-584 -53 599 0
-599 585 584 0
-586 600 0
-600 586 53 0
-585 -53 600 0
-600 586 585 0
-587 601 0
-601 587 53 0
-586 -53 601 0
-601 587 586 0
-588 602 0
-602 588 53 0
-587 -53 602 0
-602 588 587 0
-589 603 0
-603 589 55 0
-590 604 0
-604 590 55 0
-589 -55 604 0
-604 590 589 0
-591 605 0
-605 591 55 0
-590 -55 605 0
-605 591 590 0
-592 606 0
-606 592 55 0
-591 -55 606 0
-606 592 591 0
-593 607 0
-607 593 55 0
-592 -55 607 0
-607 593 592 0
-594 608 0
-608 594 55 0
-593 -55 608 0
-608 594 593 0
-595 609 0
-609 595 55 0
-594 -55 609 0
-609 595 594 0
-596 610 0
-610 596 55 0
-595 -55 610 0
-610 596 595 0
-597 611 0
-611 597 55 0
-596 -55 611 0
-611 597 596 0
-598 612 0
-612 598 55 0
-597 -55 612 0
-612 598 597 0
-599 613 0
-613 599 55 0
-598 -55 613 0
-613 599 598 0
-600 614 0
-614 600 55 0
-599 -55 614 0
-614 600 599 0
-601 615 0
-615 601 55 0
-600 -55 615 0
-615 601 600 0
-602 616 0
-616 602 55 0
-601 -55 616 0
-616 602 601 0
225 0
-238 0
-252 0
-266 0
-280 0
-294 0
-308 0
-322 0
-336 0
-350 0
-364 0
-378 0
-392 0
-406 0
-420 0
-434 0
-448 0
-462 0
-476 0
-490 0
-504 0
-518 0
-532 0
-546 0
-560 0
-574 0
-588 0
-602 0
-616 0
615 0
c Variable for even degree
-616 -1 0
616 1 0
-617 -1 -616 0
-617 1 616 0
617 1 -616 0
617 -1 616 0
-618 -3 -617 0
-618 3 617 0
618 3 -617 0
618 -3 617 0
-619 -5 -618 0
-619 5 618 0
619 5 -618 0
619 -5 618 0
-620 -7 -619 0
-620 7 619 0
620 7 -619 0
620 -7 619 0
-621 -9 -620 0
-621 9 620 0
621 9 -620 0
621 -9 620 0
-622 -11 -621 0
-622 11 621 0
622 11 -621 0
622 -11 621 0
-623 -13 -622 0
-623 13 622 0
623 13 -622 0
623 -13 622 0
-624 1 0
624 -1 0
-625 -15 -624 0
-625 15 624 0
625 15 -624 0
625 -15 624 0
-626 -17 -625 0
-626 17 625 0
626 17 -625 0
626 -17 625 0
-627 -19 -626 0
-627 19 626 0
627 19 -626 0
627 -19 626 0
-628 -21 -627 0
-628 21 627 0
628 21 -627 0
628 -21 627 0
-629 -23 -628 0
-629 23 628 0
629 23 -628 0
629 -23 628 0
-630 -25 -629 0
-630 25 629 0
630 25 -629 0
630 -25 629 0
-631 3 0
631 -3 0
-632 -15 -631 0
-632 15 631 0
632 15 -631 0
632 -15 631 0
-633 -27 -632 0
-633 27 632 0
633 27 -632 0
633 -27 632 0
-634 -29 -633 0
-634 29 633 0
634 29 -633 0
634 -29 633 0
-635 -31 -634 0
-635 31 634 0
635 31 -634 0
635 -31 634 0
-636 -33 -635 0
-636 33 635 0
636 33 -635 0
636 -33 635 0
-637 -35 -636 0
-637 35 636 0
637 35 -636 0
637 -35 636 0
-638 5 0
638 -5 0
-639 -17 -638 0
-639 17 638 0
639 17 -638 0
639 -17 638 0
-640 -27 -639 0
-640 27 639 0
640 27 -639 0
640 -27 639 0
-641 -37 -640 0
-641 37 640 0
641 37 -640 0
641 -37 640 0
-642 -39 -641 0
-642 39 641 0
642 39 -641 0
642 -39 641 0
-643 -41 -642 0
-643 41 642 0
643 41 -642 0
643 -41 642 0
-644 -43 -643 0
-644 43 643 0
644 43 -643 0
644 -43 643 0
-645 7 0
645 -7 0
-646 -19 -645 0
-646 19 645 0
646 19 -645 0
646 -19 645 0
-647 -29 -646 0
-647 29 646 0
647 29 -646 0
647 -29 646 0
-648 -37 -647 0
-648 37 647 0
648 37 -647 0
648 -37 647 0
-649 -45 -648 0
-649 45 648 0
649 45 -648 0
649 -45 648 0
-650 -47 -649 0
-650 47 649 0
650 47 -649 0
650 -47 649 0
-651 -49 -650 0
-651 49 650 0
651 49 -650 0
651 -49 650 0
-652 9 0
652 -9 0
-653 -21 -652 0
-653 21 652 0
653 21 -652 0
653 -21 652 0
-654 -31 -653 0
-654 31 653 0
654 31 -653 0
654 -31 653 0
-655 -39 -654 0
-655 39 654 0
655 39 -654 0
655 -39 654 0
-656 -45 -655 0
-656 45 655 0
656 45 -655 0
656 -45 655 0
-657 -51 -656 0
-657 51 656 0
657 51 -656 0
657 -51 656 0
-658 -53 -657 0
-658 53 657 0
658 53 -657 0
658 -53 657 0
-659 11 0
659 -11 0
-660 -23 -659 0
-660 23 659 0
660 23 -659 0
660 -23 659 0
-661 -33 -660 0
-661 33 660 0
661 33 -660 0
661 -33 660 0
-662 -41 -661 0
-662 41 661 0
662 41 -661 0
662 -41 661 0
-663 -47 -662 0
-663 47 662 0
663 47 -662 0
663 -47 662 0
-664 -51 -663 0
-664 51 663 0
664 51 -663 0
664 -51 663 0
-665 -55 -664 0
-665 55 664 0
665 55 -664 0
665 -55 664 0
-666 13 0
666 -13 0
-667 -25 -666 0
-667 25 666 0
667 25 -666 0
667 -25 666 0
-668 -35 -667 0
-668 35 667 0
668 35 -667 0
668 -35 667 0
-669 -43 -668 0
-669 43 668 0
669 43 -668 0
669 -43 668 0
-670 -49 -669 0
-670 49 669 0
670 49 -669 0
670 -49 669 0
-671 -53 -670 0
-671 53 670 0
671 53 -670 0
671 -53 670 0
-672 -55 -671 0
-672 55 671 0
672 55 -671 0
672 -55 671 0
-623 -630 -637 0
-623 -630 -644 0
-623 -630 -651 0
-623 -630 -658 0
-623 -630 -665 0
-623 -630 -672 0
-623 -637 -644 0
-623 -637 -651 0
-623 -637 -658 0
-623 -637 -665 0
-623 -637 -672 0
-623 -644 -651 0
-623 -644 -658 0
-623 -644 -665 0
-623 -644 -672 0
-623 -651 -658 0
-623 -651 -665 0
-623 -651 -672 0
-623 -658 -665 0
-623 -658 -672 0
-623 -665 -672 0
-630 -637 -644 0
-630 -637 -651 0
-630 -637 -658 0
-630 -637 -665 0
-630 -637 -672 0
-630 -644 -651 0
-630 -644 -658 0
-630 -644 -665 0
-630 -644 -672 0
-630 -651 -658 0
-630 -651 -665 0
-630 -651 -672 0
-630 -658 -665 0
-630 -658 -672 0
-630 -665 -672 0
-637 -644 -651 0
-637 -644 -658 0
-637 -644 -665 0
-637 -644 -672 0
-637 -651 -658 0
-637 -651 -665 0
-637 -651 -672 0
-637 -658 -665 0
-637 -658 -672 0
-637 -665 -672 0
-644 -651 -658 0
-644 -651 -665 0
-644 -651 -672 0
-644 -658 -665 0
-644 -658 -672 0
-644 -665 -672 0
-651 -658 -665 0
-651 -658 -672 0
-651 -665 -672 0
-658 -665 -672 0
